n = 39;
lu = [|-662, -458
      |-1415, 57
      |-723, -618
      |99, 1464
      |-1500, 783
      |-478, 1124
      |-63, 1250
      |-791, 1388
      |-1410, -317
      |-1220, 1242
      |-1486, -21
      |-1079, 215
      |-97, 208
      |-1124, 83
      |581, 856
      |-428, -294
      |-1249, 1412
      |243, 363
      |-467, 845
      |-208, 794
      |-1519, 1446
      |-1335, 1382
      |-751, 1148
      |1017, 1018
      |449, 1013
      |39, 1074
      |-364, -238
      |66, 1152
      |-84, 440
      |-965, 652
      |-1232, 247
      |-815, -302
      |-340, 1259
      |-557, 1312
      |1339, 1456
      |-1115, 106
      |414, 1482
      |-1160, 580
      |-1383, 188|];
